Grid graph
SECTION Graph
Nodes 50
Edges 86
E 1 2 2
E 1 11 1
E 2 3 2
E 2 12 2
E 3 4 2
E 3 13 2
E 4 5 2
E 4 14 2
E 5 6 2
E 5 15 2
E 6 7 2
E 6 16 2
E 7 8 2
E 7 17 2
E 8 9 2
E 8 18 2
E 9 10 2
E 9 19 2
E 10 20 2
E 11 12 2
E 11 21 1
E 12 13 2
E 12 22 2
E 13 14 2
E 13 23 2
E 14 15 2
E 14 24 2
E 15 16 2
E 15 25 2
E 16 17 2
E 16 26 2
E 17 18 2
E 17 27 2
E 18 19 2
E 18 28 2
E 19 20 2
E 19 29 2
E 20 30 1
E 21 22 1
E 22 23 1
E 23 24 1
E 24 25 1
E 25 26 1
E 26 27 1
E 27 28 1
E 28 29 1
E 29 30 1
E 21 31 1
E 22 32 2
E 23 33 2
E 24 34 2
E 25 35 1
E 26 36 2
E 22 32 2
E 27 37 2
E 28 38 2
E 29 39 2
E 30 40 2
E 31 32 2
E 31 41 1
E 32 42 2
E 32 33 2
E 33 34 1
E 33 43 2
E 34 35 1
E 34 44 2
E 35 36 2
E 35 45 2
E 36 37 2
E 36 46 2
E 37 38 2
E 37 47 2
E 38 39 2
E 38 48 2
E 39 40 2
E 39 49 2
E 40 50 2
E 41 42 2
E 42 43 2
E 43 44 2
E 44 45 2
E 45 46 2
E 46 47 2
E 47 48 2
E 48 49 2
E 49 50 2
END

SECTION Terminals
Terminals 5
T 1
T 20
T 25
T 33
T 41
END

EOF